decision_x1=[0,2];
decision_x2=[0,2];
decision_x3=[0,2];
decision_x4=[0,2];
decision_x5=[0,2];
decision_x6=[0,2];
decision_x7=[0,2];
decision_x8=[0,2];
decision_x9=[0,2];
decision_x10=[0,2];
decision_x11=[0,2];
decision_x12=[0,2];
random_y1=[0,2];
random_y2=[0,2];
random_y3=[0,2];
random_y4=[0,2];
random_y5=[0,2];
random_y6=[0,2];
random_y7=[0,2];
random_y8=[0,2];
random_y9=[0,2];
random_y10=[0,2];
random_y11=[0,2];
random_y12=[0,2];
constraint_x4_x1=[
0,0,66|
0,1,36|
0,2,69|
1,0,69|
1,1,25|
1,2,81|
2,0,36|
2,1,79|
2,2,98|
];
constraint_x4_x2=[
0,0,90|
0,1,55|
0,2,52|
1,0,16|
1,1,73|
1,2,66|
2,0,42|
2,1,38|
2,2,97|
];
constraint_x4_x3=[
0,0,14|
0,1,41|
0,2,43|
1,0,30|
1,1,11|
1,2,58|
2,0,58|
2,1,39|
2,2,55|
];
constraint_x5_x3=[
0,0,37|
0,1,6.6|
0,2,92|
1,0,2.7|
1,1,85|
1,2,82|
2,0,47|
2,1,25|
2,2,62|
];
constraint_x5_x4=[
0,0,61|
0,1,68|
0,2,87|
1,0,26|
1,1,68|
1,2,2.5|
2,0,17|
2,1,63|
2,2,63|
];
constraint_x6_x1=[
0,0,48|
0,1,56|
0,2,26|
1,0,44|
1,1,44|
1,2,19|
2,0,18|
2,1,8.2|
2,2,54|
];
constraint_x6_x3=[
0,0,25|
0,1,35|
0,2,54|
1,0,39|
1,1,56|
1,2,32|
2,0,25|
2,1,2.6|
2,2,44|
];
constraint_x6_x5=[
0,0,95|
0,1,52|
0,2,68|
1,0,99|
1,1,37|
1,2,86|
2,0,90|
2,1,16|
2,2,97|
];
constraint_x7_x1=[
0,0,78|
0,1,13|
0,2,19|
1,0,67|
1,1,38|
1,2,5.1|
2,0,49|
2,1,23|
2,2,51|
];
constraint_x8_x2=[
0,0,5.3|
0,1,7.9|
0,2,68|
1,0,29|
1,1,15|
1,2,38|
2,0,41|
2,1,59|
2,2,51|
];
constraint_x8_x7=[
0,0,63|
0,1,14|
0,2,24|
1,0,79|
1,1,70|
1,2,13|
2,0,92|
2,1,15|
2,2,12|
];
constraint_x9_x1=[
0,0,3|
0,1,69|
0,2,62|
1,0,71|
1,1,28|
1,2,24|
2,0,43|
2,1,60|
2,2,79|
];
constraint_x9_x2=[
0,0,43|
0,1,72|
0,2,90|
1,0,70|
1,1,9|
1,2,13|
2,0,9|
2,1,75|
2,2,33|
];
constraint_x9_x3=[
0,0,64|
0,1,51|
0,2,45|
1,0,55|
1,1,57|
1,2,29|
2,0,60|
2,1,3.1|
2,2,67|
];
constraint_x9_x4=[
0,0,76|
0,1,30|
0,2,91|
1,0,36|
1,1,97|
1,2,6.2|
2,0,69|
2,1,50|
2,2,67|
];
constraint_x9_x7=[
0,0,49|
0,1,78|
0,2,67|
1,0,84|
1,1,8.4|
1,2,77|
2,0,75|
2,1,23|
2,2,9.5|
];
constraint_x10_x1=[
0,0,68|
0,1,8|
0,2,27|
1,0,11|
1,1,12|
1,2,92|
2,0,88|
2,1,22|
2,2,46|
];
constraint_x10_x2=[
0,0,22|
0,1,91|
0,2,32|
1,0,48|
1,1,49|
1,2,55|
2,0,30|
2,1,65|
2,2,73|
];
constraint_x10_x4=[
0,0,45|
0,1,52|
0,2,0.66|
1,0,0.91|
1,1,43|
1,2,59|
2,0,36|
2,1,35|
2,2,11|
];
constraint_x10_x5=[
0,0,41|
0,1,77|
0,2,39|
1,0,13|
1,1,59|
1,2,54|
2,0,70|
2,1,32|
2,2,33|
];
constraint_x10_x7=[
0,0,99|
0,1,63|
0,2,50|
1,0,3|
1,1,36|
1,2,10|
2,0,49|
2,1,48|
2,2,69|
];
constraint_x10_x8=[
0,0,98|
0,1,6.1|
0,2,74|
1,0,55|
1,1,57|
1,2,55|
2,0,79|
2,1,98|
2,2,26|
];
constraint_x10_x9=[
0,0,25|
0,1,77|
0,2,94|
1,0,21|
1,1,43|
1,2,62|
2,0,36|
2,1,95|
2,2,69|
];
constraint_x11_x1=[
0,0,14|
0,1,94|
0,2,75|
1,0,9|
1,1,77|
1,2,24|
2,0,90|
2,1,61|
2,2,68|
];
constraint_x11_x2=[
0,0,36|
0,1,71|
0,2,79|
1,0,54|
1,1,18|
1,2,6|
2,0,23|
2,1,53|
2,2,75|
];
constraint_x11_x4=[
0,0,59|
0,1,21|
0,2,44|
1,0,35|
1,1,99|
1,2,92|
2,0,63|
2,1,92|
2,2,5.4|
];
constraint_x11_x6=[
0,0,31|
0,1,72|
0,2,33|
1,0,37|
1,1,87|
1,2,55|
2,0,50|
2,1,40|
2,2,48|
];
constraint_x11_x9=[
0,0,48|
0,1,28|
0,2,37|
1,0,25|
1,1,64|
1,2,96|
2,0,63|
2,1,54|
2,2,98|
];
constraint_x12_x1=[
0,0,51|
0,1,29|
0,2,6|
1,0,29|
1,1,51|
1,2,40|
2,0,92|
2,1,15|
2,2,33|
];
constraint_x12_x3=[
0,0,18|
0,1,55|
0,2,83|
1,0,87|
1,1,8.4|
1,2,15|
2,0,39|
2,1,71|
2,2,46|
];
constraint_x12_x4=[
0,0,81|
0,1,94|
0,2,86|
1,0,21|
1,1,21|
1,2,54|
2,0,28|
2,1,22|
2,2,3.3|
];
constraint_x12_x6=[
0,0,87|
0,1,68|
0,2,87|
1,0,83|
1,1,51|
1,2,46|
2,0,73|
2,1,29|
2,2,33|
];
constraint_x12_x11=[
0,0,4.5|
0,1,58|
0,2,8.5|
1,0,27|
1,1,71|
1,2,19|
2,0,69|
2,1,10|
2,2,96|
];
constraint_x1_y1=[
0,0,62|
0,1,8.6|
0,2,0.38|
1,0,52|
1,1,69|
1,2,0.38|
2,0,37|
2,1,1e+02|
2,2,56|
];
constraint_x2_y2=[
0,0,66|
0,1,26|
0,2,64|
1,0,87|
1,1,12|
1,2,35|
2,0,9.1|
2,1,94|
2,2,70|
];
constraint_x3_y3=[
0,0,77|
0,1,15|
0,2,70|
1,0,37|
1,1,78|
1,2,23|
2,0,93|
2,1,98|
2,2,5.4|
];
constraint_x4_y4=[
0,0,80|
0,1,77|
0,2,7.6|
1,0,68|
1,1,37|
1,2,1e+02|
2,0,50|
2,1,71|
2,2,92|
];
constraint_x5_y5=[
0,0,7.6|
0,1,21|
0,2,22|
1,0,42|
1,1,11|
1,2,73|
2,0,57|
2,1,71|
2,2,42|
];
constraint_x6_y6=[
0,0,49|
0,1,39|
0,2,69|
1,0,49|
1,1,41|
1,2,68|
2,0,89|
2,1,63|
2,2,27|
];
constraint_x7_y7=[
0,0,62|
0,1,41|
0,2,50|
1,0,11|
1,1,1.9|
1,2,87|
2,0,71|
2,1,13|
2,2,51|
];
constraint_x8_y8=[
0,0,83|
0,1,96|
0,2,8|
1,0,68|
1,1,55|
1,2,62|
2,0,74|
2,1,35|
2,2,49|
];
constraint_x9_y9=[
0,0,96|
0,1,73|
0,2,54|
1,0,68|
1,1,87|
1,2,67|
2,0,4|
2,1,96|
2,2,58|
];
constraint_x10_y10=[
0,0,30|
0,1,21|
0,2,62|
1,0,63|
1,1,33|
1,2,42|
2,0,37|
2,1,33|
2,2,89|
];
constraint_x11_y11=[
0,0,26|
0,1,40|
0,2,7.6|
1,0,35|
1,1,66|
1,2,77|
2,0,6.4|
2,1,49|
2,2,77|
];
constraint_x12_y12=[
0,0,46|
0,1,44|
0,2,86|
1,0,23|
1,1,8.5|
1,2,32|
2,0,33|
2,1,71|
2,2,89|
];
initial_distribution_y1=[0.18,0.65,0.17];
initial_distribution_y2=[0.64,0.26,0.11];
initial_distribution_y3=[0.36,0.035,0.61];
initial_distribution_y4=[0.37,0.19,0.43];
initial_distribution_y5=[0.34,0.47,0.19];
initial_distribution_y6=[0.56,0.4,0.04];
initial_distribution_y7=[0.16,0.33,0.51];
initial_distribution_y8=[0.28,0.29,0.43];
initial_distribution_y9=[0.36,0.21,0.43];
initial_distribution_y10=[0.25,0.61,0.14];
initial_distribution_y11=[0.72,0.025,0.26];
initial_distribution_y12=[0.46,0.18,0.36];
transition_y1=[
0.26,0.47,0.28|
0.24,0.33,0.43|
0.3,0.51,0.19|
];
transition_y2=[
0.48,0.51,0.015|
0.039,0.32,0.64|
0.11,0.31,0.59|
];
transition_y3=[
0.1,0.61,0.29|
0.27,0.38,0.35|
0.21,0.052,0.74|
];
transition_y4=[
0.4,0.3,0.3|
0.53,0.42,0.047|
0.46,0.31,0.23|
];
transition_y5=[
0.36,0.36,0.27|
0.6,0.28,0.12|
0.23,0.28,0.49|
];
transition_y6=[
0.68,0.048,0.27|
0.52,0.45,0.038|
0.3,0.41,0.3|
];
transition_y7=[
0.76,0.085,0.15|
0.17,0.54,0.29|
0.14,0.55,0.31|
];
transition_y8=[
0.46,0.15,0.39|
0.23,0.31,0.46|
0.65,0.27,0.085|
];
transition_y9=[
0.3,0.36,0.34|
0.39,0.44,0.17|
0.31,0.32,0.37|
];
transition_y10=[
0.042,0.48,0.48|
0.094,0.36,0.54|
0.061,0.49,0.44|
];
transition_y11=[
0.18,0.65,0.17|
0.18,0.58,0.24|
0.081,0.6,0.32|
];
transition_y12=[
0.22,0.47,0.31|
0.19,0.54,0.28|
0.4,0.28,0.31|
];
